unsat
(:added-eqs                   3327
 :arith-eq-adapter            86
 :arith-bound-propagations-lp 199
 :arith-branch                1830
 :arith-conflicts             1952
 :arith-cube-calls            881
 :arith-diseq                 2903
 :arith-fixed-eqs             880
 :arith-gcd-calls             3552
 :arith-gcd-conflict          23
 :arith-gomory-cuts           2514
 :arith-hnf-calls             10
 :arith-lower                 87647
 :arith-make-feasible         19360
 :arith-max-columns           100
 :arith-max-rows              56
 :arith-nla-propagate-bounds  4
 :arith-offset-eqs            492
 :arith-patches               3529
 :arith-patches-success       3
 :arith-upper                 46301
 :binary-propagations         94644
 :conflicts                   1960
 :decisions                   10822
 :del-clause                  4077
 :final-checks                3553
 :max-memory                  21.07
 :memory                      17.77
 :minimized-lits              222
 :mk-bool-var                 4775
 :mk-clause                   4203
 :mk-clause-binary            3511
 :num-allocs                  788033461
 :num-checks                  1
 :propagations                124637
 :restarts                    17
 :rlimit-count                870752
 :time                        1.52
 :total-time                  1.52)
